p wcnf 559 1841 1842
1 -1 0
1842 1 2 -140 0
1842 1 -2 140 0
1842 -1 2 140 0
1842 -1 -2 -140 0
1842 1 2 -141 0
1842 1 -2 141 0
1842 -1 2 141 0
1842 -1 -2 -141 0
1 -2 0
1842 140 3 -142 0
1842 140 -3 142 0
1842 -140 3 142 0
1842 -140 -3 -142 0
1842 141 3 -143 0
1842 141 -3 143 0
1842 -141 3 143 0
1842 -141 -3 -143 0
1842 2 3 -144 0
1842 2 -3 144 0
1842 -2 3 144 0
1842 -2 -3 -144 0
1 -3 0
1842 142 4 -145 0
1842 142 -4 145 0
1842 -142 4 145 0
1842 -142 -4 -145 0
1842 143 4 -146 0
1842 143 -4 146 0
1842 -143 4 146 0
1842 -143 -4 -146 0
1842 144 4 -147 0
1842 144 -4 147 0
1842 -144 4 147 0
1842 -144 -4 -147 0
1842 3 4 -148 0
1842 3 -4 148 0
1842 -3 4 148 0
1842 -3 -4 -148 0
1 -4 0
1842 145 5 -149 0
1842 145 -5 149 0
1842 -145 5 149 0
1842 -145 -5 -149 0
1842 146 5 -150 0
1842 146 -5 150 0
1842 -146 5 150 0
1842 -146 -5 -150 0
1842 147 5 -151 0
1842 147 -5 151 0
1842 -147 5 151 0
1842 -147 -5 -151 0
1842 3 5 -152 0
1842 3 -5 152 0
1842 -3 5 152 0
1842 -3 -5 -152 0
1842 3 5 -153 0
1842 3 -5 153 0
1842 -3 5 153 0
1842 -3 -5 -153 0
1842 4 5 -154 0
1842 4 -5 154 0
1842 -4 5 154 0
1842 -4 -5 -154 0
1 -5 0
1842 149 6 -155 0
1842 149 -6 155 0
1842 -149 6 155 0
1842 -149 -6 -155 0
1842 150 6 -156 0
1842 150 -6 156 0
1842 -150 6 156 0
1842 -150 -6 -156 0
1842 152 6 -157 0
1842 152 -6 157 0
1842 -152 6 157 0
1842 -152 -6 -157 0
1842 153 6 -158 0
1842 153 -6 158 0
1842 -153 6 158 0
1842 -153 -6 -158 0
1 -6 0
1842 155 7 -159 0
1842 155 -7 159 0
1842 -155 7 159 0
1842 -155 -7 -159 0
1842 151 7 -160 0
1842 151 -7 160 0
1842 -151 7 160 0
1842 -151 -7 -160 0
1842 157 7 -161 0
1842 157 -7 161 0
1842 -157 7 161 0
1842 -157 -7 -161 0
1842 158 7 -162 0
1842 158 -7 162 0
1842 -158 7 162 0
1842 -158 -7 -162 0
1842 154 7 -163 0
1842 154 -7 163 0
1842 -154 7 163 0
1842 -154 -7 -163 0
1 -7 0
1842 159 8 -164 0
1842 159 -8 164 0
1842 -159 8 164 0
1842 -159 -8 -164 0
1842 160 8 -165 0
1842 160 -8 165 0
1842 -160 8 165 0
1842 -160 -8 -165 0
1842 7 8 -166 0
1842 7 -8 166 0
1842 -7 8 166 0
1842 -7 -8 -166 0
1842 162 8 -167 0
1842 162 -8 167 0
1842 -162 8 167 0
1842 -162 -8 -167 0
1842 7 8 -168 0
1842 7 -8 168 0
1842 -7 8 168 0
1842 -7 -8 -168 0
1 -8 0
1842 164 9 -169 0
1842 164 -9 169 0
1842 -164 9 169 0
1842 -164 -9 -169 0
1842 165 9 -170 0
1842 165 -9 170 0
1842 -165 9 170 0
1842 -165 -9 -170 0
1842 161 9 -171 0
1842 161 -9 171 0
1842 -161 9 171 0
1842 -161 -9 -171 0
1842 163 9 -172 0
1842 163 -9 172 0
1842 -163 9 172 0
1842 -163 -9 -172 0
1842 168 9 -173 0
1842 168 -9 173 0
1842 -168 9 173 0
1842 -168 -9 -173 0
1 -9 0
1842 169 10 -174 0
1842 169 -10 174 0
1842 -169 10 174 0
1842 -169 -10 -174 0
1842 170 10 -175 0
1842 170 -10 175 0
1842 -170 10 175 0
1842 -170 -10 -175 0
1842 173 10 -176 0
1842 173 -10 176 0
1842 -173 10 176 0
1842 -173 -10 -176 0
1 -10 0
1842 174 11 -177 0
1842 174 -11 177 0
1842 -174 11 177 0
1842 -174 -11 -177 0
1842 148 11 -178 0
1842 148 -11 178 0
1842 -148 11 178 0
1842 -148 -11 -178 0
1842 171 11 -179 0
1842 171 -11 179 0
1842 -171 11 179 0
1842 -171 -11 -179 0
1842 167 11 -180 0
1842 167 -11 180 0
1842 -167 11 180 0
1842 -167 -11 -180 0
1 -11 0
1842 177 12 -181 0
1842 177 -12 181 0
1842 -177 12 181 0
1842 -177 -12 -181 0
1842 178 12 -182 0
1842 178 -12 182 0
1842 -178 12 182 0
1842 -178 -12 -182 0
1842 179 12 -183 0
1842 179 -12 183 0
1842 -179 12 183 0
1842 -179 -12 -183 0
1842 172 12 -184 0
1842 172 -12 184 0
1842 -172 12 184 0
1842 -172 -12 -184 0
1842 11 12 -185 0
1842 11 -12 185 0
1842 -11 12 185 0
1842 -11 -12 -185 0
1 -12 0
1842 181 13 -186 0
1842 181 -13 186 0
1842 -181 13 186 0
1842 -181 -13 -186 0
1842 182 13 -187 0
1842 182 -13 187 0
1842 -182 13 187 0
1842 -182 -13 -187 0
1842 183 13 -188 0
1842 183 -13 188 0
1842 -183 13 188 0
1842 -183 -13 -188 0
1842 184 13 -189 0
1842 184 -13 189 0
1842 -184 13 189 0
1842 -184 -13 -189 0
1842 176 13 -190 0
1842 176 -13 190 0
1842 -176 13 190 0
1842 -176 -13 -190 0
1 -13 0
1842 186 14 -191 0
1842 186 -14 191 0
1842 -186 14 191 0
1842 -186 -14 -191 0
1842 187 14 -192 0
1842 187 -14 192 0
1842 -187 14 192 0
1842 -187 -14 -192 0
1842 189 14 -193 0
1842 189 -14 193 0
1842 -189 14 193 0
1842 -189 -14 -193 0
1842 185 14 -194 0
1842 185 -14 194 0
1842 -185 14 194 0
1842 -185 -14 -194 0
1 -14 0
1842 191 15 -195 0
1842 191 -15 195 0
1842 -191 15 195 0
1842 -191 -15 -195 0
1842 192 15 -196 0
1842 192 -15 196 0
1842 -192 15 196 0
1842 -192 -15 -196 0
1842 193 15 -197 0
1842 193 -15 197 0
1842 -193 15 197 0
1842 -193 -15 -197 0
1842 190 15 -198 0
1842 190 -15 198 0
1842 -190 15 198 0
1842 -190 -15 -198 0
1 -15 0
1842 195 16 -199 0
1842 195 -16 199 0
1842 -195 16 199 0
1842 -195 -16 -199 0
1842 196 16 -200 0
1842 196 -16 200 0
1842 -196 16 200 0
1842 -196 -16 -200 0
1842 194 16 -201 0
1842 194 -16 201 0
1842 -194 16 201 0
1842 -194 -16 -201 0
1 -16 0
1842 199 17 -202 0
1842 199 -17 202 0
1842 -199 17 202 0
1842 -199 -17 -202 0
1842 166 17 -203 0
1842 166 -17 203 0
1842 -166 17 203 0
1842 -166 -17 -203 0
1842 188 17 -204 0
1842 188 -17 204 0
1842 -188 17 204 0
1842 -188 -17 -204 0
1842 180 17 -205 0
1842 180 -17 205 0
1842 -180 17 205 0
1842 -180 -17 -205 0
1842 197 17 -206 0
1842 197 -17 206 0
1842 -197 17 206 0
1842 -197 -17 -206 0
1842 198 17 -207 0
1842 198 -17 207 0
1842 -198 17 207 0
1842 -198 -17 -207 0
1 -17 0
1842 202 18 -208 0
1842 202 -18 208 0
1842 -202 18 208 0
1842 -202 -18 -208 0
1842 203 18 -209 0
1842 203 -18 209 0
1842 -203 18 209 0
1842 -203 -18 -209 0
1842 205 18 -210 0
1842 205 -18 210 0
1842 -205 18 210 0
1842 -205 -18 -210 0
1842 207 18 -211 0
1842 207 -18 211 0
1842 -207 18 211 0
1842 -207 -18 -211 0
1 -18 0
1842 208 19 -212 0
1842 208 -19 212 0
1842 -208 19 212 0
1842 -208 -19 -212 0
1842 204 19 -213 0
1842 204 -19 213 0
1842 -204 19 213 0
1842 -204 -19 -213 0
1842 210 19 -214 0
1842 210 -19 214 0
1842 -210 19 214 0
1842 -210 -19 -214 0
1842 206 19 -215 0
1842 206 -19 215 0
1842 -206 19 215 0
1842 -206 -19 -215 0
1842 201 19 -216 0
1842 201 -19 216 0
1842 -201 19 216 0
1842 -201 -19 -216 0
1 -19 0
1842 212 20 -217 0
1842 212 -20 217 0
1842 -212 20 217 0
1842 -212 -20 -217 0
1842 213 20 -218 0
1842 213 -20 218 0
1842 -213 20 218 0
1842 -213 -20 -218 0
1842 214 20 -219 0
1842 214 -20 219 0
1842 -214 20 219 0
1842 -214 -20 -219 0
1842 216 20 -220 0
1842 216 -20 220 0
1842 -216 20 220 0
1842 -216 -20 -220 0
1 -20 0
1842 217 21 -221 0
1842 217 -21 221 0
1842 -217 21 221 0
1842 -217 -21 -221 0
1842 218 21 -222 0
1842 218 -21 222 0
1842 -218 21 222 0
1842 -218 -21 -222 0
1842 215 21 -223 0
1842 215 -21 223 0
1842 -215 21 223 0
1842 -215 -21 -223 0
1842 220 21 -224 0
1842 220 -21 224 0
1842 -220 21 224 0
1842 -220 -21 -224 0
1 -21 0
1842 221 22 -225 0
1842 221 -22 225 0
1842 -221 22 225 0
1842 -221 -22 -225 0
1842 222 22 -226 0
1842 222 -22 226 0
1842 -222 22 226 0
1842 -222 -22 -226 0
1842 223 22 -227 0
1842 223 -22 227 0
1842 -223 22 227 0
1842 -223 -22 -227 0
1842 211 22 -228 0
1842 211 -22 228 0
1842 -211 22 228 0
1842 -211 -22 -228 0
1 -22 0
1842 225 23 -229 0
1842 225 -23 229 0
1842 -225 23 229 0
1842 -225 -23 -229 0
1842 226 23 -230 0
1842 226 -23 230 0
1842 -226 23 230 0
1842 -226 -23 -230 0
1842 224 23 -231 0
1842 224 -23 231 0
1842 -224 23 231 0
1842 -224 -23 -231 0
1 -23 0
1842 229 24 -232 0
1842 229 -24 232 0
1842 -229 24 232 0
1842 -229 -24 -232 0
1842 230 24 -233 0
1842 230 -24 233 0
1842 -230 24 233 0
1842 -230 -24 -233 0
1842 228 24 -234 0
1842 228 -24 234 0
1842 -228 24 234 0
1842 -228 -24 -234 0
1 -24 0
1842 232 25 -235 0
1842 232 -25 235 0
1842 -232 25 235 0
1842 -232 -25 -235 0
1842 231 25 -236 0
1842 231 -25 236 0
1842 -231 25 236 0
1842 -231 -25 -236 0
1 -25 0
1842 235 26 -237 0
1842 235 -26 237 0
1842 -235 26 237 0
1842 -235 -26 -237 0
1842 234 26 -238 0
1842 234 -26 238 0
1842 -234 26 238 0
1842 -234 -26 -238 0
1 -26 0
1842 156 27 -239 0
1842 156 -27 239 0
1842 -156 27 239 0
1842 -156 -27 -239 0
1 -27 0
1842 239 28 -240 0
1842 239 -28 240 0
1842 -239 28 240 0
1842 -239 -28 -240 0
1842 175 28 -241 0
1842 175 -28 241 0
1842 -175 28 241 0
1842 -175 -28 -241 0
1 -28 0
1842 240 29 -242 0
1842 240 -29 242 0
1842 -240 29 242 0
1842 -240 -29 -242 0
1842 241 29 -243 0
1842 241 -29 243 0
1842 -241 29 243 0
1842 -241 -29 -243 0
1842 200 29 -244 0
1842 200 -29 244 0
1842 -200 29 244 0
1842 -200 -29 -244 0
1842 233 29 -245 0
1842 233 -29 245 0
1842 -233 29 245 0
1842 -233 -29 -245 0
1842 219 29 -246 0
1842 219 -29 246 0
1842 -219 29 246 0
1842 -219 -29 -246 0
1842 236 29 -247 0
1842 236 -29 247 0
1842 -236 29 247 0
1842 -236 -29 -247 0
1 -29 0
1842 242 30 -248 0
1842 242 -30 248 0
1842 -242 30 248 0
1842 -242 -30 -248 0
1842 243 30 -249 0
1842 243 -30 249 0
1842 -243 30 249 0
1842 -243 -30 -249 0
1842 244 30 -250 0
1842 244 -30 250 0
1842 -244 30 250 0
1842 -244 -30 -250 0
1842 227 30 -251 0
1842 227 -30 251 0
1842 -227 30 251 0
1842 -227 -30 -251 0
1842 247 30 -252 0
1842 247 -30 252 0
1842 -247 30 252 0
1842 -247 -30 -252 0
1 -30 0
1842 248 31 -253 0
1842 248 -31 253 0
1842 -248 31 253 0
1842 -248 -31 -253 0
1842 249 31 -254 0
1842 249 -31 254 0
1842 -249 31 254 0
1842 -249 -31 -254 0
1842 209 31 -255 0
1842 209 -31 255 0
1842 -209 31 255 0
1842 -209 -31 -255 0
1842 246 31 -256 0
1842 246 -31 256 0
1842 -246 31 256 0
1842 -246 -31 -256 0
1 -31 0
1842 253 32 -257 0
1842 253 -32 257 0
1842 -253 32 257 0
1842 -253 -32 -257 0
1842 254 32 -258 0
1842 254 -32 258 0
1842 -254 32 258 0
1842 -254 -32 -258 0
1842 255 32 -259 0
1842 255 -32 259 0
1842 -255 32 259 0
1842 -255 -32 -259 0
1842 251 32 -260 0
1842 251 -32 260 0
1842 -251 32 260 0
1842 -251 -32 -260 0
1 -32 0
1842 257 33 -261 0
1842 257 -33 261 0
1842 -257 33 261 0
1842 -257 -33 -261 0
1842 258 33 -262 0
1842 258 -33 262 0
1842 -258 33 262 0
1842 -258 -33 -262 0
1842 245 33 -263 0
1842 245 -33 263 0
1842 -245 33 263 0
1842 -245 -33 -263 0
1842 256 33 -264 0
1842 256 -33 264 0
1842 -256 33 264 0
1842 -256 -33 -264 0
1842 260 33 -265 0
1842 260 -33 265 0
1842 -260 33 265 0
1842 -260 -33 -265 0
1842 252 33 -266 0
1842 252 -33 266 0
1842 -252 33 266 0
1842 -252 -33 -266 0
1 -33 0
1842 261 34 -267 0
1842 261 -34 267 0
1842 -261 34 267 0
1842 -261 -34 -267 0
1842 262 34 -268 0
1842 262 -34 268 0
1842 -262 34 268 0
1842 -262 -34 -268 0
1842 263 34 -269 0
1842 263 -34 269 0
1842 -263 34 269 0
1842 -263 -34 -269 0
1842 264 34 -270 0
1842 264 -34 270 0
1842 -264 34 270 0
1842 -264 -34 -270 0
1842 266 34 -271 0
1842 266 -34 271 0
1842 -266 34 271 0
1842 -266 -34 -271 0
1 -34 0
1842 267 35 -272 0
1842 267 -35 272 0
1842 -267 35 272 0
1842 -267 -35 -272 0
1842 268 35 -273 0
1842 268 -35 273 0
1842 -268 35 273 0
1842 -268 -35 -273 0
1842 270 35 -274 0
1842 270 -35 274 0
1842 -270 35 274 0
1842 -270 -35 -274 0
1842 265 35 -275 0
1842 265 -35 275 0
1842 -265 35 275 0
1842 -265 -35 -275 0
1 -35 0
1842 272 36 -276 0
1842 272 -36 276 0
1842 -272 36 276 0
1842 -272 -36 -276 0
1842 273 36 -277 0
1842 273 -36 277 0
1842 -273 36 277 0
1842 -273 -36 -277 0
1842 275 36 -278 0
1842 275 -36 278 0
1842 -275 36 278 0
1842 -275 -36 -278 0
1842 34 36 -279 0
1842 34 -36 279 0
1842 -34 36 279 0
1842 -34 -36 -279 0
1842 271 36 -280 0
1842 271 -36 280 0
1842 -271 36 280 0
1842 -271 -36 -280 0
1 -36 0
1842 276 37 -281 0
1842 276 -37 281 0
1842 -276 37 281 0
1842 -276 -37 -281 0
1842 277 37 -282 0
1842 277 -37 282 0
1842 -277 37 282 0
1842 -277 -37 -282 0
1842 280 37 -283 0
1842 280 -37 283 0
1842 -280 37 283 0
1842 -280 -37 -283 0
1 -37 0
1842 281 38 -284 0
1842 281 -38 284 0
1842 -281 38 284 0
1842 -281 -38 -284 0
1842 259 38 -285 0
1842 259 -38 285 0
1842 -259 38 285 0
1842 -259 -38 -285 0
1842 274 38 -286 0
1842 274 -38 286 0
1842 -274 38 286 0
1842 -274 -38 -286 0
1 -38 0
1842 284 39 -287 0
1842 284 -39 287 0
1842 -284 39 287 0
1842 -284 -39 -287 0
1842 285 39 -288 0
1842 285 -39 288 0
1842 -285 39 288 0
1842 -285 -39 -288 0
1842 278 39 -289 0
1842 278 -39 289 0
1842 -278 39 289 0
1842 -278 -39 -289 0
1 -39 0
1842 287 40 -290 0
1842 287 -40 290 0
1842 -287 40 290 0
1842 -287 -40 -290 0
1842 269 40 -291 0
1842 269 -40 291 0
1842 -269 40 291 0
1842 -269 -40 -291 0
1842 286 40 -292 0
1842 286 -40 292 0
1842 -286 40 292 0
1842 -286 -40 -292 0
1842 289 40 -293 0
1842 289 -40 293 0
1842 -289 40 293 0
1842 -289 -40 -293 0
1 -40 0
1842 290 41 -294 0
1842 290 -41 294 0
1842 -290 41 294 0
1842 -290 -41 -294 0
1842 291 41 -295 0
1842 291 -41 295 0
1842 -291 41 295 0
1842 -291 -41 -295 0
1842 292 41 -296 0
1842 292 -41 296 0
1842 -292 41 296 0
1842 -292 -41 -296 0
1842 279 41 -297 0
1842 279 -41 297 0
1842 -279 41 297 0
1842 -279 -41 -297 0
1 -41 0
1842 294 42 -298 0
1842 294 -42 298 0
1842 -294 42 298 0
1842 -294 -42 -298 0
1842 295 42 -299 0
1842 295 -42 299 0
1842 -295 42 299 0
1842 -295 -42 -299 0
1842 296 42 -300 0
1842 296 -42 300 0
1842 -296 42 300 0
1842 -296 -42 -300 0
1842 297 42 -301 0
1842 297 -42 301 0
1842 -297 42 301 0
1842 -297 -42 -301 0
1842 40 42 -302 0
1842 40 -42 302 0
1842 -40 42 302 0
1842 -40 -42 -302 0
1 -42 0
1842 298 43 -303 0
1842 298 -43 303 0
1842 -298 43 303 0
1842 -298 -43 -303 0
1842 299 43 -304 0
1842 299 -43 304 0
1842 -299 43 304 0
1842 -299 -43 -304 0
1842 300 43 -305 0
1842 300 -43 305 0
1842 -300 43 305 0
1842 -300 -43 -305 0
1842 283 43 -306 0
1842 283 -43 306 0
1842 -283 43 306 0
1842 -283 -43 -306 0
1 -43 0
1842 303 44 -307 0
1842 303 -44 307 0
1842 -303 44 307 0
1842 -303 -44 -307 0
1842 304 44 -308 0
1842 304 -44 308 0
1842 -304 44 308 0
1842 -304 -44 -308 0
1842 305 44 -309 0
1842 305 -44 309 0
1842 -305 44 309 0
1842 -305 -44 -309 0
1842 302 44 -310 0
1842 302 -44 310 0
1842 -302 44 310 0
1842 -302 -44 -310 0
1 -44 0
1842 307 45 -311 0
1842 307 -45 311 0
1842 -307 45 311 0
1842 -307 -45 -311 0
1842 308 45 -312 0
1842 308 -45 312 0
1842 -308 45 312 0
1842 -308 -45 -312 0
1842 301 45 -313 0
1842 301 -45 313 0
1842 -301 45 313 0
1842 -301 -45 -313 0
1 -45 0
1842 311 46 -314 0
1842 311 -46 314 0
1842 -311 46 314 0
1842 -311 -46 -314 0
1842 312 46 -315 0
1842 312 -46 315 0
1842 -312 46 315 0
1842 -312 -46 -315 0
1842 313 46 -316 0
1842 313 -46 316 0
1842 -313 46 316 0
1842 -313 -46 -316 0
1842 310 46 -317 0
1842 310 -46 317 0
1842 -310 46 317 0
1842 -310 -46 -317 0
1 -46 0
1842 314 47 -318 0
1842 314 -47 318 0
1842 -314 47 318 0
1842 -314 -47 -318 0
1842 309 47 -319 0
1842 309 -47 319 0
1842 -309 47 319 0
1842 -309 -47 -319 0
1 -47 0
1842 318 48 -320 0
1842 318 -48 320 0
1842 -318 48 320 0
1842 -318 -48 -320 0
1842 319 48 -321 0
1842 319 -48 321 0
1842 -319 48 321 0
1842 -319 -48 -321 0
1842 293 48 -322 0
1842 293 -48 322 0
1842 -293 48 322 0
1842 -293 -48 -322 0
1 -48 0
1842 320 49 -323 0
1842 320 -49 323 0
1842 -320 49 323 0
1842 -320 -49 -323 0
1842 321 49 -324 0
1842 321 -49 324 0
1842 -321 49 324 0
1842 -321 -49 -324 0
1842 322 49 -325 0
1842 322 -49 325 0
1842 -322 49 325 0
1842 -322 -49 -325 0
1 -49 0
1842 323 50 -326 0
1842 323 -50 326 0
1842 -323 50 326 0
1842 -323 -50 -326 0
1842 324 50 -327 0
1842 324 -50 327 0
1842 -324 50 327 0
1842 -324 -50 -327 0
1842 325 50 -328 0
1842 325 -50 328 0
1842 -325 50 328 0
1842 -325 -50 -328 0
1842 317 50 -329 0
1842 317 -50 329 0
1842 -317 50 329 0
1842 -317 -50 -329 0
1 -50 0
1842 326 51 -330 0
1842 326 -51 330 0
1842 -326 51 330 0
1842 -326 -51 -330 0
1842 327 51 -331 0
1842 327 -51 331 0
1842 -327 51 331 0
1842 -327 -51 -331 0
1842 316 51 -332 0
1842 316 -51 332 0
1842 -316 51 332 0
1842 -316 -51 -332 0
1 -51 0
1842 330 52 -333 0
1842 330 -52 333 0
1842 -330 52 333 0
1842 -330 -52 -333 0
1842 331 52 -334 0
1842 331 -52 334 0
1842 -331 52 334 0
1842 -331 -52 -334 0
1842 332 52 -335 0
1842 332 -52 335 0
1842 -332 52 335 0
1842 -332 -52 -335 0
1842 49 52 -336 0
1842 49 -52 336 0
1842 -49 52 336 0
1842 -49 -52 -336 0
1 -52 0
1842 333 53 -337 0
1842 333 -53 337 0
1842 -333 53 337 0
1842 -333 -53 -337 0
1842 334 53 -338 0
1842 334 -53 338 0
1842 -334 53 338 0
1842 -334 -53 -338 0
1842 335 53 -339 0
1842 335 -53 339 0
1842 -335 53 339 0
1842 -335 -53 -339 0
1842 329 53 -340 0
1842 329 -53 340 0
1842 -329 53 340 0
1842 -329 -53 -340 0
1 -53 0
1842 337 54 -341 0
1842 337 -54 341 0
1842 -337 54 341 0
1842 -337 -54 -341 0
1842 338 54 -342 0
1842 338 -54 342 0
1842 -338 54 342 0
1842 -338 -54 -342 0
1842 340 54 -343 0
1842 340 -54 343 0
1842 -340 54 343 0
1842 -340 -54 -343 0
1 -54 0
1842 341 55 -344 0
1842 341 -55 344 0
1842 -341 55 344 0
1842 -341 -55 -344 0
1842 328 55 -345 0
1842 328 -55 345 0
1842 -328 55 345 0
1842 -328 -55 -345 0
1842 339 55 -346 0
1842 339 -55 346 0
1842 -339 55 346 0
1842 -339 -55 -346 0
1 -55 0
1842 344 56 -347 0
1842 344 -56 347 0
1842 -344 56 347 0
1842 -344 -56 -347 0
1842 345 56 -348 0
1842 345 -56 348 0
1842 -345 56 348 0
1842 -345 -56 -348 0
1842 346 56 -349 0
1842 346 -56 349 0
1842 -346 56 349 0
1842 -346 -56 -349 0
1842 336 56 -350 0
1842 336 -56 350 0
1842 -336 56 350 0
1842 -336 -56 -350 0
1 -56 0
1842 347 57 -351 0
1842 347 -57 351 0
1842 -347 57 351 0
1842 -347 -57 -351 0
1842 348 57 -352 0
1842 348 -57 352 0
1842 -348 57 352 0
1842 -348 -57 -352 0
1842 349 57 -353 0
1842 349 -57 353 0
1842 -349 57 353 0
1842 -349 -57 -353 0
1842 343 57 -354 0
1842 343 -57 354 0
1842 -343 57 354 0
1842 -343 -57 -354 0
1 -57 0
1842 351 58 -355 0
1842 351 -58 355 0
1842 -351 58 355 0
1842 -351 -58 -355 0
1842 306 58 -356 0
1842 306 -58 356 0
1842 -306 58 356 0
1842 -306 -58 -356 0
1 -58 0
1842 355 59 -357 0
1842 355 -59 357 0
1842 -355 59 357 0
1842 -355 -59 -357 0
1842 350 59 -358 0
1842 350 -59 358 0
1842 -350 59 358 0
1842 -350 -59 -358 0
1 -59 0
1842 357 60 -359 0
1842 357 -60 359 0
1842 -357 60 359 0
1842 -357 -60 -359 0
1842 354 60 -360 0
1842 354 -60 360 0
1842 -354 60 360 0
1842 -354 -60 -360 0
1 -60 0
1842 282 61 -361 0
1842 282 -61 361 0
1842 -282 61 361 0
1842 -282 -61 -361 0
1 -61 0
1842 361 62 -362 0
1842 361 -62 362 0
1842 -361 62 362 0
1842 -361 -62 -362 0
1842 288 62 -363 0
1842 288 -62 363 0
1842 -288 62 363 0
1842 -288 -62 -363 0
1 -62 0
1842 362 63 -364 0
1842 362 -63 364 0
1842 -362 63 364 0
1842 -362 -63 -364 0
1842 363 63 -365 0
1842 363 -63 365 0
1842 -363 63 365 0
1842 -363 -63 -365 0
1842 315 63 -366 0
1842 315 -63 366 0
1842 -315 63 366 0
1842 -315 -63 -366 0
1842 342 63 -367 0
1842 342 -63 367 0
1842 -342 63 367 0
1842 -342 -63 -367 0
1842 352 63 -368 0
1842 352 -63 368 0
1842 -352 63 368 0
1842 -352 -63 -368 0
1 -63 0
1842 364 64 -369 0
1842 364 -64 369 0
1842 -364 64 369 0
1842 -364 -64 -369 0
1842 365 64 -370 0
1842 365 -64 370 0
1842 -365 64 370 0
1842 -365 -64 -370 0
1842 367 64 -371 0
1842 367 -64 371 0
1842 -367 64 371 0
1842 -367 -64 -371 0
1 -64 0
1842 369 65 -372 0
1842 369 -65 372 0
1842 -369 65 372 0
1842 -369 -65 -372 0
1842 370 65 -373 0
1842 370 -65 373 0
1842 -370 65 373 0
1842 -370 -65 -373 0
1842 368 65 -374 0
1842 368 -65 374 0
1842 -368 65 374 0
1842 -368 -65 -374 0
1 -65 0
1842 372 66 -375 0
1842 372 -66 375 0
1842 -372 66 375 0
1842 -372 -66 -375 0
1842 366 66 -376 0
1842 366 -66 376 0
1842 -366 66 376 0
1842 -366 -66 -376 0
1842 371 66 -377 0
1842 371 -66 377 0
1842 -371 66 377 0
1842 -371 -66 -377 0
1842 374 66 -378 0
1842 374 -66 378 0
1842 -374 66 378 0
1842 -374 -66 -378 0
1 -66 0
1842 375 67 -379 0
1842 375 -67 379 0
1842 -375 67 379 0
1842 -375 -67 -379 0
1842 376 67 -380 0
1842 376 -67 380 0
1842 -376 67 380 0
1842 -376 -67 -380 0
1842 377 67 -381 0
1842 377 -67 381 0
1842 -377 67 381 0
1842 -377 -67 -381 0
1842 378 67 -382 0
1842 378 -67 382 0
1842 -378 67 382 0
1842 -378 -67 -382 0
1842 356 67 -383 0
1842 356 -67 383 0
1842 -356 67 383 0
1842 -356 -67 -383 0
1842 360 67 -384 0
1842 360 -67 384 0
1842 -360 67 384 0
1842 -360 -67 -384 0
1 -67 0
1842 379 68 -385 0
1842 379 -68 385 0
1842 -379 68 385 0
1842 -379 -68 -385 0
1842 380 68 -386 0
1842 380 -68 386 0
1842 -380 68 386 0
1842 -380 -68 -386 0
1842 381 68 -387 0
1842 381 -68 387 0
1842 -381 68 387 0
1842 -381 -68 -387 0
1842 353 68 -388 0
1842 353 -68 388 0
1842 -353 68 388 0
1842 -353 -68 -388 0
1842 383 68 -389 0
1842 383 -68 389 0
1842 -383 68 389 0
1842 -383 -68 -389 0
1842 384 68 -390 0
1842 384 -68 390 0
1842 -384 68 390 0
1842 -384 -68 -390 0
1 -68 0
1842 385 69 -391 0
1842 385 -69 391 0
1842 -385 69 391 0
1842 -385 -69 -391 0
1842 386 69 -392 0
1842 386 -69 392 0
1842 -386 69 392 0
1842 -386 -69 -392 0
1842 382 69 -393 0
1842 382 -69 393 0
1842 -382 69 393 0
1842 -382 -69 -393 0
1 -69 0
1842 391 70 -394 0
1842 391 -70 394 0
1842 -391 70 394 0
1842 -391 -70 -394 0
1842 387 70 -395 0
1842 387 -70 395 0
1842 -387 70 395 0
1842 -387 -70 -395 0
1842 393 70 -396 0
1842 393 -70 396 0
1842 -393 70 396 0
1842 -393 -70 -396 0
1 -70 0
1842 394 71 -397 0
1842 394 -71 397 0
1842 -394 71 397 0
1842 -394 -71 -397 0
1842 396 71 -398 0
1842 396 -71 398 0
1842 -396 71 398 0
1842 -396 -71 -398 0
1 -71 0
1842 397 72 -399 0
1842 397 -72 399 0
1842 -397 72 399 0
1842 -397 -72 -399 0
1842 398 72 -400 0
1842 398 -72 400 0
1842 -398 72 400 0
1842 -398 -72 -400 0
1842 388 72 -401 0
1842 388 -72 401 0
1842 -388 72 401 0
1842 -388 -72 -401 0
1842 389 72 -402 0
1842 389 -72 402 0
1842 -389 72 402 0
1842 -389 -72 -402 0
1842 390 72 -403 0
1842 390 -72 403 0
1842 -390 72 403 0
1842 -390 -72 -403 0
1 -72 0
1842 399 73 -404 0
1842 399 -73 404 0
1842 -399 73 404 0
1842 -399 -73 -404 0
1842 400 73 -405 0
1842 400 -73 405 0
1842 -400 73 405 0
1842 -400 -73 -405 0
1842 238 73 -406 0
1842 238 -73 406 0
1842 -238 73 406 0
1842 -238 -73 -406 0
1 -73 0
1842 404 74 -407 0
1842 404 -74 407 0
1842 -404 74 407 0
1842 -404 -74 -407 0
1842 402 74 -408 0
1842 402 -74 408 0
1842 -402 74 408 0
1842 -402 -74 -408 0
1842 403 74 -409 0
1842 403 -74 409 0
1842 -403 74 409 0
1842 -403 -74 -409 0
1 -74 0
1842 407 75 -410 0
1842 407 -75 410 0
1842 -407 75 410 0
1842 -407 -75 -410 0
1842 406 75 -411 0
1842 406 -75 411 0
1842 -406 75 411 0
1842 -406 -75 -411 0
1 -75 0
1842 250 76 -412 0
1842 250 -76 412 0
1842 -250 76 412 0
1842 -250 -76 -412 0
1 -76 0
1842 412 77 -413 0
1842 412 -77 413 0
1842 -412 77 413 0
1842 -412 -77 -413 0
1842 392 77 -414 0
1842 392 -77 414 0
1842 -392 77 414 0
1842 -392 -77 -414 0
1842 395 77 -415 0
1842 395 -77 415 0
1842 -395 77 415 0
1842 -395 -77 -415 0
1 -77 0
1842 413 78 -416 0
1842 413 -78 416 0
1842 -413 78 416 0
1842 -413 -78 -416 0
1842 414 78 -417 0
1842 414 -78 417 0
1842 -414 78 417 0
1842 -414 -78 -417 0
1842 405 78 -418 0
1842 405 -78 418 0
1842 -405 78 418 0
1842 -405 -78 -418 0
1 -78 0
1842 416 79 -419 0
1842 416 -79 419 0
1842 -416 79 419 0
1842 -416 -79 -419 0
1842 417 79 -420 0
1842 417 -79 420 0
1842 -417 79 420 0
1842 -417 -79 -420 0
1842 418 79 -421 0
1842 418 -79 421 0
1842 -418 79 421 0
1842 -418 -79 -421 0
1842 408 79 -422 0
1842 408 -79 422 0
1842 -408 79 422 0
1842 -408 -79 -422 0
1842 411 79 -423 0
1842 411 -79 423 0
1842 -411 79 423 0
1842 -411 -79 -423 0
1 -79 0
1842 419 80 -424 0
1842 419 -80 424 0
1842 -419 80 424 0
1842 -419 -80 -424 0
1842 421 80 -425 0
1842 421 -80 425 0
1842 -421 80 425 0
1842 -421 -80 -425 0
1 -80 0
1842 424 81 -426 0
1842 424 -81 426 0
1842 -424 81 426 0
1842 -424 -81 -426 0
1842 425 81 -427 0
1842 425 -81 427 0
1842 -425 81 427 0
1842 -425 -81 -427 0
1842 422 81 -428 0
1842 422 -81 428 0
1842 -422 81 428 0
1842 -422 -81 -428 0
1842 423 81 -429 0
1842 423 -81 429 0
1842 -423 81 429 0
1842 -423 -81 -429 0
1 -81 0
1842 373 82 -430 0
1842 373 -82 430 0
1842 -373 82 430 0
1842 -373 -82 -430 0
1 -82 0
1842 430 83 -431 0
1842 430 -83 431 0
1842 -430 83 431 0
1842 -430 -83 -431 0
1842 420 83 -432 0
1842 420 -83 432 0
1842 -420 83 432 0
1842 -420 -83 -432 0
1842 415 83 -433 0
1842 415 -83 433 0
1842 -415 83 433 0
1842 -415 -83 -433 0
1842 427 83 -434 0
1842 427 -83 434 0
1842 -427 83 434 0
1842 -427 -83 -434 0
1 -83 0
1842 431 84 -435 0
1842 431 -84 435 0
1842 -431 84 435 0
1842 -431 -84 -435 0
1842 433 84 -436 0
1842 433 -84 436 0
1842 -433 84 436 0
1842 -433 -84 -436 0
1 -84 0
1842 435 85 -437 0
1842 435 -85 437 0
1842 -435 85 437 0
1842 -435 -85 -437 0
1842 434 85 -438 0
1842 434 -85 438 0
1842 -434 85 438 0
1842 -434 -85 -438 0
1 -85 0
1842 432 86 -439 0
1842 432 -86 439 0
1842 -432 86 439 0
1842 -432 -86 -439 0
1 -86 0
1842 439 87 -440 0
1842 439 -87 440 0
1842 -439 87 440 0
1842 -439 -87 -440 0
1842 436 87 -441 0
1842 436 -87 441 0
1842 -436 87 441 0
1842 -436 -87 -441 0
1 -87 0
1842 440 88 -442 0
1842 440 -88 442 0
1842 -440 88 442 0
1842 -440 -88 -442 0
1842 441 88 -443 0
1842 441 -88 443 0
1842 -441 88 443 0
1842 -441 -88 -443 0
1842 438 88 -444 0
1842 438 -88 444 0
1842 -438 88 444 0
1842 -438 -88 -444 0
1 -88 0
1842 442 89 -445 0
1842 442 -89 445 0
1842 -442 89 445 0
1842 -442 -89 -445 0
1842 443 89 -446 0
1842 443 -89 446 0
1842 -443 89 446 0
1842 -443 -89 -446 0
1842 444 89 -447 0
1842 444 -89 447 0
1842 -444 89 447 0
1842 -444 -89 -447 0
1842 428 89 -448 0
1842 428 -89 448 0
1842 -428 89 448 0
1842 -428 -89 -448 0
1842 409 89 -449 0
1842 409 -89 449 0
1842 -409 89 449 0
1842 -409 -89 -449 0
1 -89 0
1842 445 90 -450 0
1842 445 -90 450 0
1842 -445 90 450 0
1842 -445 -90 -450 0
1842 446 90 -451 0
1842 446 -90 451 0
1842 -446 90 451 0
1842 -446 -90 -451 0
1842 401 90 -452 0
1842 401 -90 452 0
1842 -401 90 452 0
1842 -401 -90 -452 0
1 -90 0
1842 450 91 -453 0
1842 450 -91 453 0
1842 -450 91 453 0
1842 -450 -91 -453 0
1842 451 91 -454 0
1842 451 -91 454 0
1842 -451 91 454 0
1842 -451 -91 -454 0
1842 452 91 -455 0
1842 452 -91 455 0
1842 -452 91 455 0
1842 -452 -91 -455 0
1842 449 91 -456 0
1842 449 -91 456 0
1842 -449 91 456 0
1842 -449 -91 -456 0
1 -91 0
1842 453 92 -457 0
1842 453 -92 457 0
1842 -453 92 457 0
1842 -453 -92 -457 0
1842 454 92 -458 0
1842 454 -92 458 0
1842 -454 92 458 0
1842 -454 -92 -458 0
1842 448 92 -459 0
1842 448 -92 459 0
1842 -448 92 459 0
1842 -448 -92 -459 0
1842 456 92 -460 0
1842 456 -92 460 0
1842 -456 92 460 0
1842 -456 -92 -460 0
1 -92 0
1842 457 93 -461 0
1842 457 -93 461 0
1842 -457 93 461 0
1842 -457 -93 -461 0
1842 458 93 -462 0
1842 458 -93 462 0
1842 -458 93 462 0
1842 -458 -93 -462 0
1 -93 0
1842 461 94 -463 0
1842 461 -94 463 0
1842 -461 94 463 0
1842 -461 -94 -463 0
1842 447 94 -464 0
1842 447 -94 464 0
1842 -447 94 464 0
1842 -447 -94 -464 0
1 -94 0
1842 463 95 -465 0
1842 463 -95 465 0
1842 -463 95 465 0
1842 -463 -95 -465 0
1842 464 95 -466 0
1842 464 -95 466 0
1842 -464 95 466 0
1842 -464 -95 -466 0
1842 459 95 -467 0
1842 459 -95 467 0
1842 -459 95 467 0
1842 -459 -95 -467 0
1842 429 95 -468 0
1842 429 -95 468 0
1842 -429 95 468 0
1842 -429 -95 -468 0
1 -95 0
1842 465 96 -469 0
1842 465 -96 469 0
1842 -465 96 469 0
1842 -465 -96 -469 0
1842 455 96 -470 0
1842 455 -96 470 0
1842 -455 96 470 0
1842 -455 -96 -470 0
1 -96 0
1842 469 97 -471 0
1842 469 -97 471 0
1842 -469 97 471 0
1842 -469 -97 -471 0
1842 470 97 -472 0
1842 470 -97 472 0
1842 -470 97 472 0
1842 -470 -97 -472 0
1842 460 97 -473 0
1842 460 -97 473 0
1842 -460 97 473 0
1842 -460 -97 -473 0
1 -97 0
1842 471 98 -474 0
1842 471 -98 474 0
1842 -471 98 474 0
1842 -471 -98 -474 0
1842 467 98 -475 0
1842 467 -98 475 0
1842 -467 98 475 0
1842 -467 -98 -475 0
1842 468 98 -476 0
1842 468 -98 476 0
1842 -468 98 476 0
1842 -468 -98 -476 0
1 -98 0
1842 474 99 -477 0
1842 474 -99 477 0
1842 -474 99 477 0
1842 -474 -99 -477 0
1 -99 0
1842 462 100 -478 0
1842 462 -100 478 0
1842 -462 100 478 0
1842 -462 -100 -478 0
1 -100 0
1842 478 101 -479 0
1842 478 -101 479 0
1842 -478 101 479 0
1842 -478 -101 -479 0
1842 466 101 -480 0
1842 466 -101 480 0
1842 -466 101 480 0
1842 -466 -101 -480 0
1 -101 0
1842 479 102 -481 0
1842 479 -102 481 0
1842 -479 102 481 0
1842 -479 -102 -481 0
1842 480 102 -482 0
1842 480 -102 482 0
1842 -480 102 482 0
1842 -480 -102 -482 0
1842 358 102 -483 0
1842 358 -102 483 0
1842 -358 102 483 0
1842 -358 -102 -483 0
1 -102 0
1842 481 103 -484 0
1842 481 -103 484 0
1842 -481 103 484 0
1842 -481 -103 -484 0
1842 482 103 -485 0
1842 482 -103 485 0
1842 -482 103 485 0
1842 -482 -103 -485 0
1842 483 103 -486 0
1842 483 -103 486 0
1842 -483 103 486 0
1842 -483 -103 -486 0
1842 473 103 -487 0
1842 473 -103 487 0
1842 -473 103 487 0
1842 -473 -103 -487 0
1 -103 0
1842 484 104 -488 0
1842 484 -104 488 0
1842 -484 104 488 0
1842 -484 -104 -488 0
1842 472 104 -489 0
1842 472 -104 489 0
1842 -472 104 489 0
1842 -472 -104 -489 0
1 -104 0
1842 488 105 -490 0
1842 488 -105 490 0
1842 -488 105 490 0
1842 -488 -105 -490 0
1842 489 105 -491 0
1842 489 -105 491 0
1842 -489 105 491 0
1842 -489 -105 -491 0
1842 486 105 -492 0
1842 486 -105 492 0
1842 -486 105 492 0
1842 -486 -105 -492 0
1 -105 0
1842 490 106 -493 0
1842 490 -106 493 0
1842 -490 106 493 0
1842 -490 -106 -493 0
1842 491 106 -494 0
1842 491 -106 494 0
1842 -491 106 494 0
1842 -491 -106 -494 0
1842 492 106 -495 0
1842 492 -106 495 0
1842 -492 106 495 0
1842 -492 -106 -495 0
1842 487 106 -496 0
1842 487 -106 496 0
1842 -487 106 496 0
1842 -487 -106 -496 0
1 -106 0
1842 493 107 -497 0
1842 493 -107 497 0
1842 -493 107 497 0
1842 -493 -107 -497 0
1842 494 107 -498 0
1842 494 -107 498 0
1842 -494 107 498 0
1842 -494 -107 -498 0
1842 496 107 -499 0
1842 496 -107 499 0
1842 -496 107 499 0
1842 -496 -107 -499 0
1 -107 0
1842 497 108 -500 0
1842 497 -108 500 0
1842 -497 108 500 0
1842 -497 -108 -500 0
1842 499 108 -501 0
1842 499 -108 501 0
1842 -499 108 501 0
1842 -499 -108 -501 0
1 -108 0
1842 500 109 -502 0
1842 500 -109 502 0
1842 -500 109 502 0
1842 -500 -109 -502 0
1842 93 109 -503 0
1842 93 -109 503 0
1842 -93 109 503 0
1842 -93 -109 -503 0
1 -109 0
1842 485 110 -504 0
1842 485 -110 504 0
1842 -485 110 504 0
1842 -485 -110 -504 0
1 -110 0
1842 504 111 -505 0
1842 504 -111 505 0
1842 -504 111 505 0
1842 -504 -111 -505 0
1842 498 111 -506 0
1842 498 -111 506 0
1842 -498 111 506 0
1842 -498 -111 -506 0
1 -111 0
1842 505 112 -507 0
1842 505 -112 507 0
1842 -505 112 507 0
1842 -505 -112 -507 0
1842 506 112 -508 0
1842 506 -112 508 0
1842 -506 112 508 0
1842 -506 -112 -508 0
1842 495 112 -509 0
1842 495 -112 509 0
1842 -495 112 509 0
1842 -495 -112 -509 0
1 -112 0
1842 507 113 -510 0
1842 507 -113 510 0
1842 -507 113 510 0
1842 -507 -113 -510 0
1842 508 113 -511 0
1842 508 -113 511 0
1842 -508 113 511 0
1842 -508 -113 -511 0
1842 509 113 -512 0
1842 509 -113 512 0
1842 -509 113 512 0
1842 -509 -113 -512 0
1842 501 113 -513 0
1842 501 -113 513 0
1842 -501 113 513 0
1842 -501 -113 -513 0
1 -113 0
1842 510 114 -514 0
1842 510 -114 514 0
1842 -510 114 514 0
1842 -510 -114 -514 0
1842 511 114 -515 0
1842 511 -114 515 0
1842 -511 114 515 0
1842 -511 -114 -515 0
1842 512 114 -516 0
1842 512 -114 516 0
1842 -512 114 516 0
1842 -512 -114 -516 0
1 -114 0
1842 514 115 -517 0
1842 514 -115 517 0
1842 -514 115 517 0
1842 -514 -115 -517 0
1842 515 115 -518 0
1842 515 -115 518 0
1842 -515 115 518 0
1842 -515 -115 -518 0
1842 114 115 -519 0
1842 114 -115 519 0
1842 -114 115 519 0
1842 -114 -115 -519 0
1 -115 0
1842 517 116 -520 0
1842 517 -116 520 0
1842 -517 116 520 0
1842 -517 -116 -520 0
1842 516 116 -521 0
1842 516 -116 521 0
1842 -516 116 521 0
1842 -516 -116 -521 0
1 -116 0
1842 520 117 -522 0
1842 520 -117 522 0
1842 -520 117 522 0
1842 -520 -117 -522 0
1842 521 117 -523 0
1842 521 -117 523 0
1842 -521 117 523 0
1842 -521 -117 -523 0
1842 519 117 -524 0
1842 519 -117 524 0
1842 -519 117 524 0
1842 -519 -117 -524 0
1 -117 0
1842 522 118 -525 0
1842 522 -118 525 0
1842 -522 118 525 0
1842 -522 -118 -525 0
1842 523 118 -526 0
1842 523 -118 526 0
1842 -523 118 526 0
1842 -523 -118 -526 0
1842 476 118 -527 0
1842 476 -118 527 0
1842 -476 118 527 0
1842 -476 -118 -527 0
1 -118 0
1842 525 119 -528 0
1842 525 -119 528 0
1842 -525 119 528 0
1842 -525 -119 -528 0
1842 524 119 -529 0
1842 524 -119 529 0
1842 -524 119 529 0
1842 -524 -119 -529 0
1 -119 0
1842 528 120 -530 0
1842 528 -120 530 0
1842 -528 120 530 0
1842 -528 -120 -530 0
1 -120 0
1842 530 121 -531 0
1842 530 -121 531 0
1842 -530 121 531 0
1842 -530 -121 -531 0
1842 527 121 -532 0
1842 527 -121 532 0
1842 -527 121 532 0
1842 -527 -121 -532 0
1 -121 0
1842 518 122 -533 0
1842 518 -122 533 0
1842 -518 122 533 0
1842 -518 -122 -533 0
1 -122 0
1842 533 123 -534 0
1842 533 -123 534 0
1842 -533 123 534 0
1842 -533 -123 -534 0
1842 526 123 -535 0
1842 526 -123 535 0
1842 -526 123 535 0
1842 -526 -123 -535 0
1 -123 0
1842 534 124 -536 0
1842 534 -124 536 0
1842 -534 124 536 0
1842 -534 -124 -536 0
1842 535 124 -537 0
1842 535 -124 537 0
1842 -535 124 537 0
1842 -535 -124 -537 0
1842 529 124 -538 0
1842 529 -124 538 0
1842 -529 124 538 0
1842 -529 -124 -538 0
1 -124 0
1842 536 125 -539 0
1842 536 -125 539 0
1842 -536 125 539 0
1842 -536 -125 -539 0
1842 538 125 -540 0
1842 538 -125 540 0
1842 -538 125 540 0
1842 -538 -125 -540 0
1 -125 0
1842 539 126 -541 0
1842 539 -126 541 0
1842 -539 126 541 0
1842 -539 -126 -541 0
1 -126 0
1842 475 127 -542 0
1842 475 -127 542 0
1842 -475 127 542 0
1842 -475 -127 -542 0
1842 513 127 -543 0
1842 513 -127 543 0
1842 -513 127 543 0
1842 -513 -127 -543 0
1 -127 0
1842 542 128 -544 0
1842 542 -128 544 0
1842 -542 128 544 0
1842 -542 -128 -544 0
1 -128 0
1842 544 129 -545 0
1842 544 -129 545 0
1842 -544 129 545 0
1842 -544 -129 -545 0
1842 532 129 -546 0
1842 532 -129 546 0
1842 -532 129 546 0
1842 -532 -129 -546 0
1 -129 0
1842 537 130 -547 0
1842 537 -130 547 0
1842 -537 130 547 0
1842 -537 -130 -547 0
1 -130 0
1842 547 131 -548 0
1842 547 -131 548 0
1842 -547 131 548 0
1842 -547 -131 -548 0
1842 543 131 -549 0
1842 543 -131 549 0
1842 -543 131 549 0
1842 -543 -131 -549 0
1 -131 0
1842 548 132 -550 0
1842 548 -132 550 0
1842 -548 132 550 0
1842 -548 -132 -550 0
1842 540 132 -551 0
1842 540 -132 551 0
1842 -540 132 551 0
1842 -540 -132 -551 0
1 -132 0
1842 550 133 -552 0
1842 550 -133 552 0
1842 -550 133 552 0
1842 -550 -133 -552 0
1 -133 0
1842 552 134 -553 0
1842 552 -134 553 0
1842 -552 134 553 0
1842 -552 -134 -553 0
1842 546 134 -554 0
1842 546 -134 554 0
1842 -546 134 554 0
1842 -546 -134 -554 0
1 -134 0
1842 549 135 -555 0
1842 549 -135 555 0
1842 -549 135 555 0
1842 -549 -135 -555 0
1 -135 0
1842 555 136 -556 0
1842 555 -136 556 0
1842 -555 136 556 0
1842 -555 -136 -556 0
1 -136 0
1842 551 137 -557 0
1842 551 -137 557 0
1842 -551 137 557 0
1842 -551 -137 -557 0
1 -137 0
1842 557 138 -558 0
1842 557 -138 558 0
1842 -557 138 558 0
1842 -557 -138 -558 0
1 -138 0
1842 554 139 -559 0
1842 554 -139 559 0
1842 -554 139 559 0
1842 -554 -139 -559 0
1 -139 0
1842 -237 0
1842 -359 0
1842 -410 0
1842 -426 0
1842 -437 0
1842 -477 0
1842 -502 0
1842 -531 0
1842 -541 0
1842 -545 0
1842 -553 0
1842 -556 0
1842 -558 0
1842 -99 0
1842 -120 0
1842 -503 0
1842 -126 0
1842 -136 0
1842 -128 0
1842 -133 0
1842 -138 0
1842 559 0
